8 8
  0	81	1	41	2	76	3	15	4	86	5	88	6	86	7	27	
  0	11	1	30	2	82	3	99	4	63	5	43	6	32	7	82	
  0	13	1	95	2	54	3	62	4	47	5	75	6	85	7	13	
  0	97	1	25	2	54	3	97	4	42	5	3	6	22	7	93	
  0	74	1	67	2	75	3	55	4	74	5	10	6	42	7	41	
  0	59	1	61	2	5	3	82	4	41	5	86	6	13	7	81	
  0	33	1	91	2	60	3	21	4	33	5	42	6	26	7	80	
  0	70	1	38	2	67	3	59	4	95	5	63	6	55	7	29	
